
******************************************************************************
This program contains Ipopt, a library for large-scale nonlinear optimization.
 Ipopt is released as open source code under the Eclipse Public License (EPL).
         For more information visit http://projects.coin-or.org/Ipopt
******************************************************************************

This is Ipopt version 3.12.6, running with linear solver ma57.

Number of nonzeros in equality constraint Jacobian...:        0
Number of nonzeros in inequality constraint Jacobian.:        0
Number of nonzeros in Lagrangian Hessian.............:     9999

Total number of variables............................:     5000
                     variables with only lower bounds:        0
                variables with lower and upper bounds:        0
                     variables with only upper bounds:        0
Total number of equality constraints.................:        0
Total number of inequality constraints...............:        0
        inequality constraints with only lower bounds:        0
   inequality constraints with lower and upper bounds:        0
        inequality constraints with only upper bounds:        0

iter    objective    inf_pr   inf_du lg(mu)  ||d||  lg(rg) alpha_du alpha_pr  ls
   0  1.9821229e+02 0.00e+00 7.11e-01  -1.0 0.00e+00    -  0.00e+00 0.00e+00   0
   1 -5.5743045e+03 0.00e+00 7.25e-01  -1.7 5.26e+00    -  1.00e+00 1.00e+00f  1
   2 -6.6803991e+03 0.00e+00 7.50e-01  -1.7 8.24e-01   0.0 1.00e+00 1.00e+00f  1
   3 -1.6047515e+04 0.00e+00 7.50e-01  -1.7 6.23e+00  -0.5 1.00e+00 1.00e+00f  1
   4 -1.7951917e+04 0.00e+00 7.28e-01  -1.7 9.37e-01  -0.1 1.00e+00 1.00e+00f  1
   5 -2.4015688e+04 0.00e+00 7.47e-01  -1.7 1.09e+01  -0.5 1.00e+00 1.00e+00f  1
   6 -2.4984643e+04 0.00e+00 7.47e-01  -1.7 1.10e+00  -0.1 1.00e+00 1.00e+00f  1
   7 -3.3929238e+04 0.00e+00 7.47e-01  -1.7 3.65e+01  -0.6 1.00e+00 1.00e+00f  1
   8 -3.5236488e+04 0.00e+00 7.47e-01  -1.7 1.29e+00  -0.2 1.00e+00 1.00e+00f  1
   9 -3.5732986e+04 0.00e+00 7.47e-01  -1.7 4.10e-01   0.3 1.00e+00 1.00e+00f  1
iter    objective    inf_pr   inf_du lg(mu)  ||d||  lg(rg) alpha_du alpha_pr  ls
  10 -3.7548205e+04 0.00e+00 7.47e-01  -1.7 1.53e+00  -0.2 1.00e+00 1.00e+00f  1
  11 -3.8291550e+04 0.00e+00 7.47e-01  -1.7 4.64e-01   0.2 1.00e+00 1.00e+00f  1
  12 -4.1962941e+04 0.00e+00 7.43e-01  -1.7 1.84e+00  -0.3 1.00e+00 1.00e+00f  1
  13 -4.2992020e+04 0.00e+00 7.43e-01  -1.7 5.24e-01   0.2 1.00e+00 1.00e+00f  1
  14 -4.5276223e+04 0.00e+00 7.43e-01  -1.7 2.24e+00  -0.3 1.00e+00 1.00e+00f  1
  15 -4.5893643e+04 0.00e+00 7.43e-01  -1.7 5.96e-01   0.1 1.00e+00 1.00e+00f  1
  16 -4.7439627e+04 0.00e+00 7.43e-01  -1.7 2.84e+00  -0.4 1.00e+00 1.00e+00f  1
  17 -4.7863587e+04 0.00e+00 7.43e-01  -1.7 6.80e-01   0.1 1.00e+00 1.00e+00f  1
  18 -4.9723471e+04 0.00e+00 7.43e-01  -1.7 3.75e+00  -0.4 1.00e+00 1.00e+00f  1
  19 -5.0458173e+04 0.00e+00 7.43e-01  -1.7 7.79e-01   0.0 1.00e+00 1.00e+00f  1
iter    objective    inf_pr   inf_du lg(mu)  ||d||  lg(rg) alpha_du alpha_pr  ls
  20 -5.4394158e+04 0.00e+00 7.43e-01  -1.7 5.32e+00  -0.5 1.00e+00 1.00e+00f  1
  21 -5.5958204e+04 0.00e+00 7.43e-01  -1.7 8.97e-01  -0.0 1.00e+00 1.00e+00f  1
  22 -6.2542895e+04 0.00e+00 7.36e-01  -1.7 8.53e+00  -0.5 1.00e+00 1.00e+00f  1
  23 -6.3580785e+04 0.00e+00 7.36e-01  -1.7 1.03e+00  -0.1 1.00e+00 1.00e+00f  1
  24 -7.1827365e+04 0.00e+00 7.36e-01  -1.7 2.00e+01  -0.6 1.00e+00 1.00e+00f  1
  25 -7.3571328e+04 0.00e+00 7.36e-01  -1.7 1.20e+00  -0.1 1.00e+00 1.00e+00f  1
  26 -7.4155516e+04 0.00e+00 7.36e-01  -1.7 3.88e-01   0.3 1.00e+00 1.00e+00f  1
  27 -7.5908093e+04 0.00e+00 7.36e-01  -1.7 1.42e+00  -0.2 1.00e+00 1.00e+00f  1
  28 -7.6459334e+04 0.00e+00 7.36e-01  -1.7 4.39e-01   0.2 1.00e+00 1.00e+00f  1
  29 -7.8172192e+04 0.00e+00 7.36e-01  -1.7 1.70e+00  -0.2 1.00e+00 1.00e+00f  1
iter    objective    inf_pr   inf_du lg(mu)  ||d||  lg(rg) alpha_du alpha_pr  ls
  30 -7.8727335e+04 0.00e+00 7.36e-01  -1.7 4.98e-01   0.2 1.00e+00 1.00e+00f  1
  31 -8.0331901e+04 0.00e+00 7.28e-01  -1.7 2.04e+00  -0.3 1.00e+00 1.00e+00f  1
  32 -8.0863728e+04 0.00e+00 7.28e-01  -1.7 5.59e-01   0.1 1.00e+00 1.00e+00f  1
  33 -8.2991736e+04 0.00e+00 7.28e-01  -1.7 2.55e+00  -0.3 1.00e+00 1.00e+00f  1
  34 -8.3519008e+04 0.00e+00 7.28e-01  -1.7 6.37e-01   0.1 1.00e+00 1.00e+00f  1
  35 -8.5980445e+04 0.00e+00 7.28e-01  -1.7 3.31e+00  -0.4 1.00e+00 1.00e+00f  1
  36 -8.6846992e+04 0.00e+00 7.28e-01  -1.7 7.29e-01   0.0 1.00e+00 1.00e+00f  1
  37 -9.0667546e+04 0.00e+00 7.28e-01  -1.7 4.55e+00  -0.4 1.00e+00 1.00e+00f  1
  38 -9.1331301e+04 0.00e+00 7.28e-01  -1.7 8.37e-01  -0.0 1.00e+00 1.00e+00f  1
  39 -9.4919604e+04 0.00e+00 7.18e-01  -1.7 6.98e+00  -0.5 1.00e+00 1.00e+00f  1
iter    objective    inf_pr   inf_du lg(mu)  ||d||  lg(rg) alpha_du alpha_pr  ls
  40 -9.5713054e+04 0.00e+00 7.18e-01  -1.7 9.53e-01  -0.1 1.00e+00 1.00e+00f  1
  41 -1.0426469e+05 0.00e+00 7.18e-01  -1.7 1.33e+01  -0.5 1.00e+00 1.00e+00f  1
  42 -1.0573400e+05 0.00e+00 7.18e-01  -1.7 1.11e+00  -0.1 1.00e+00 1.00e+00f  1
  43 -1.3089727e+05 0.00e+00 7.18e-01  -1.7 1.05e+02  -0.6 1.00e+00 1.00e+00f  1
  44 -1.3207957e+05 0.00e+00 7.18e-01  -1.7 1.30e+00  -0.2 1.00e+00 1.00e+00f  1
  45 -1.3249992e+05 0.00e+00 7.18e-01  -1.7 4.11e-01   0.3 1.00e+00 1.00e+00f  1
  46 -1.3387511e+05 0.00e+00 7.06e-01  -1.7 1.52e+00  -0.2 1.00e+00 1.00e+00f  1
  47 -1.3430647e+05 0.00e+00 7.06e-01  -1.7 4.57e-01   0.2 1.00e+00 1.00e+00f  1
  48 -1.3572176e+05 0.00e+00 7.06e-01  -1.7 1.83e+00  -0.3 1.00e+00 1.00e+00f  1
  49 -1.3618917e+05 0.00e+00 7.06e-01  -1.7 5.19e-01   0.2 1.00e+00 1.00e+00f  1
iter    objective    inf_pr   inf_du lg(mu)  ||d||  lg(rg) alpha_du alpha_pr  ls
  50 -1.3789072e+05 0.00e+00 7.06e-01  -1.7 2.27e+00  -0.3 1.00e+00 1.00e+00f  1
  51 -1.3841270e+05 0.00e+00 7.06e-01  -1.7 5.91e-01   0.1 1.00e+00 1.00e+00f  1
  52 -1.4044708e+05 0.00e+00 6.98e-01  -1.7 2.89e+00  -0.4 1.00e+00 1.00e+00f  1
  53 -1.4084245e+05 0.00e+00 7.05e-01  -1.7 6.75e-01   0.1 1.00e+00 1.00e+00f  1
  54 -1.4220873e+05 0.00e+00 7.06e-01  -1.7 3.89e+00  -0.4 1.00e+00 1.00e+00f  1
  55 -1.4266411e+05 0.00e+00 7.06e-01  -1.7 7.73e-01  -0.0 1.00e+00 1.00e+00f  1
  56 -1.4514020e+05 0.00e+00 6.92e-01  -1.7 5.68e+00  -0.5 1.00e+00 1.00e+00f  1
  57 -1.4564308e+05 0.00e+00 6.92e-01  -1.7 8.72e-01  -0.1 1.00e+00 1.00e+00f  1
  58 -1.4938416e+05 0.00e+00 6.92e-01  -1.7 9.58e+00  -0.5 1.00e+00 1.00e+00f  1
  59 -1.5028056e+05 0.00e+00 6.91e-01  -1.7 1.01e+00  -0.1 1.00e+00 1.00e+00f  1
iter    objective    inf_pr   inf_du lg(mu)  ||d||  lg(rg) alpha_du alpha_pr  ls
  60 -1.5939254e+05 0.00e+00 6.92e-01  -1.7 3.00e+01  -0.6 1.00e+00 1.00e+00f  1
  61 -1.6025610e+05 0.00e+00 6.92e-01  -1.7 1.18e+00  -0.2 1.00e+00 1.00e+00f  1
  62 -1.6057013e+05 0.00e+00 6.92e-01  -1.7 3.80e-01   0.3 1.00e+00 1.00e+00f  1
  63 -1.6162596e+05 0.00e+00 6.92e-01  -1.7 1.40e+00  -0.2 1.00e+00 1.00e+00f  1
  64 -1.6197183e+05 0.00e+00 6.92e-01  -1.7 4.30e-01   0.2 1.00e+00 1.00e+00f  1
  65 -1.6303892e+05 0.00e+00 6.77e-01  -1.7 1.63e+00  -0.3 1.00e+00 1.00e+00f  1
  66 -1.6337269e+05 0.00e+00 6.77e-01  -1.7 4.76e-01   0.2 1.00e+00 1.00e+00f  1
  67 -1.6447815e+05 0.00e+00 6.76e-01  -1.7 2.00e+00  -0.3 1.00e+00 1.00e+00f  1
  68 -1.6480601e+05 0.00e+00 6.74e-01  -1.7 5.40e-01   0.1 1.00e+00 1.00e+00f  1
  69 -1.6599821e+05 0.00e+00 6.76e-01  -1.7 2.51e+00  -0.4 1.00e+00 1.00e+00f  1
iter    objective    inf_pr   inf_du lg(mu)  ||d||  lg(rg) alpha_du alpha_pr  ls
  70 -1.6637023e+05 0.00e+00 6.77e-01  -1.7 6.17e-01   0.1 1.00e+00 1.00e+00f  1
  71 -1.6786564e+05 0.00e+00 6.76e-01  -1.7 3.30e+00  -0.4 1.00e+00 1.00e+00f  1
  72 -1.6817536e+05 0.00e+00 6.77e-01  -1.7 7.05e-01   0.0 1.00e+00 1.00e+00f  1
  73 -1.6956932e+05 0.00e+00 6.76e-01  -1.7 4.65e+00  -0.5 1.00e+00 1.00e+00f  1
  74 -1.6994346e+05 0.00e+00 6.76e-01  -1.7 8.12e-01  -0.0 1.00e+00 1.00e+00f  1
  75 -1.7231158e+05 0.00e+00 6.59e-01  -1.7 7.48e+00  -0.5 1.00e+00 1.00e+00f  1
  76 -1.7281975e+05 0.00e+00 6.59e-01  -1.7 9.12e-01  -0.1 1.00e+00 1.00e+00f  1
  77 -1.7747968e+05 0.00e+00 6.59e-01  -1.7 1.63e+01  -0.6 1.00e+00 1.00e+00f  1
  78 -1.7815723e+05 0.00e+00 6.59e-01  -1.7 1.06e+00  -0.1 1.00e+00 1.00e+00f  1
  79 -1.7841402e+05 0.00e+00 6.59e-01  -1.7 3.47e-01   0.3 1.00e+00 1.00e+00f  1
iter    objective    inf_pr   inf_du lg(mu)  ||d||  lg(rg) alpha_du alpha_pr  ls
  80 -1.7934071e+05 0.00e+00 6.55e-01  -1.7 1.25e+00  -0.2 1.00e+00 1.00e+00f  1
  81 -1.7965681e+05 0.00e+00 6.58e-01  -1.7 3.92e-01   0.2 1.00e+00 1.00e+00f  1
  82 -1.8063423e+05 0.00e+00 6.40e-01  -1.7 1.46e+00  -0.2 1.00e+00 1.00e+00f  1
  83 -1.8093531e+05 0.00e+00 6.59e-01  -1.7 4.44e-01   0.2 1.00e+00 1.00e+00f  1
  84 -1.8188630e+05 0.00e+00 6.45e-01  -1.7 1.79e+00  -0.3 1.00e+00 1.00e+00f  1
  85 -1.8217484e+05 0.00e+00 6.59e-01  -1.7 5.05e-01   0.1 1.00e+00 1.00e+00f  1
  86 -1.8313916e+05 0.00e+00 6.40e-01  -1.7 2.18e+00  -0.3 1.00e+00 1.00e+00f  1
  87 -1.8341146e+05 0.00e+00 6.40e-01  -1.7 5.58e-01   0.1 1.00e+00 1.00e+00f  1
  88 -1.8434687e+05 0.00e+00 6.40e-01  -1.7 2.78e+00  -0.4 1.00e+00 1.00e+00f  1
  89 -1.8460129e+05 0.00e+00 6.20e-01  -1.7 6.19e-01   0.0 1.00e+00 1.00e+00f  1
iter    objective    inf_pr   inf_du lg(mu)  ||d||  lg(rg) alpha_du alpha_pr  ls
  90 -1.8549822e+05 0.00e+00 6.40e-01  -1.7 3.80e+00  -0.4 1.00e+00 1.00e+00f  1
  91 -1.8568827e+05 0.00e+00 6.33e-01  -1.7 7.09e-01  -0.0 1.00e+00 1.00e+00f  1
  92 -1.8673340e+05 0.00e+00 6.40e-01  -1.7 5.75e+00  -0.5 1.00e+00 1.00e+00f  1
  93 -1.8706288e+05 0.00e+00 6.21e-01  -1.7 8.26e-01  -0.1 1.00e+00 1.00e+00f  1
  94 -1.9005280e+05 0.00e+00 6.29e-01  -1.7 1.04e+01  -0.5 1.00e+00 1.00e+00f  1
  95 -1.9048485e+05 0.00e+00 6.20e-01  -1.7 9.42e-01  -0.1 1.00e+00 1.00e+00f  1
  96 -1.9541715e+05 0.00e+00 6.20e-01  -1.7 6.58e+01  -0.6 1.00e+00 1.00e+00f  1
  97 -1.9586246e+05 0.00e+00 6.20e-01  -1.7 1.10e+00  -0.2 1.00e+00 1.00e+00f  1
  98 -1.9602240e+05 0.00e+00 6.20e-01  -1.7 3.54e-01   0.3 1.00e+00 1.00e+00f  1
  99 -1.9659905e+05 0.00e+00 6.20e-01  -1.7 1.30e+00  -0.2 1.00e+00 1.00e+00f  1
iter    objective    inf_pr   inf_du lg(mu)  ||d||  lg(rg) alpha_du alpha_pr  ls
 100 -1.9680932e+05 0.00e+00 6.20e-01  -1.7 4.01e-01   0.2 1.00e+00 1.00e+00f  1
 101 -1.9752741e+05 0.00e+00 6.05e-01  -1.7 1.56e+00  -0.3 1.00e+00 1.00e+00f  1
 102 -1.9773976e+05 0.00e+00 6.17e-01  -1.7 4.51e-01   0.2 1.00e+00 1.00e+00f  1
 103 -1.9841728e+05 0.00e+00 6.17e-01  -1.7 1.84e+00  -0.3 1.00e+00 1.00e+00f  1
 104 -1.9861154e+05 0.00e+00 6.16e-01  -1.7 5.11e-01   0.1 1.00e+00 1.00e+00f  1
 105 -1.9934355e+05 0.00e+00 6.20e-01  -1.7 2.41e+00  -0.4 1.00e+00 1.00e+00f  1
 106 -1.9956807e+05 0.00e+00 5.98e-01  -1.7 5.67e-01   0.0 1.00e+00 1.00e+00f  1
 107 -2.0053471e+05 0.00e+00 6.02e-01  -1.7 3.09e+00  -0.4 1.00e+00 1.00e+00f  1
 108 -2.0070730e+05 0.00e+00 6.10e-01  -1.7 6.67e-01  -0.0 1.00e+00 1.00e+00f  1
 109 -2.0153134e+05 0.00e+00 5.98e-01  -1.7 4.46e+00  -0.5 1.00e+00 1.00e+00f  1
iter    objective    inf_pr   inf_du lg(mu)  ||d||  lg(rg) alpha_du alpha_pr  ls
 110 -2.0172371e+05 0.00e+00 5.97e-01  -1.7 7.36e-01  -0.1 1.00e+00 1.00e+00f  1
 111 -2.0262116e+05 0.00e+00 5.98e-01  -1.7 7.62e+00  -0.5 1.00e+00 1.00e+00f  1
 112 -2.0280276e+05 0.00e+00 5.98e-01  -1.7 8.61e-01  -0.1 1.00e+00 1.00e+00f  1
 113 -2.0479736e+05 0.00e+00 5.92e-01  -1.7 2.27e+01  -0.6 1.00e+00 1.00e+00f  1
 114 -2.0498467e+05 0.00e+00 5.75e-01  -1.7 9.59e-01  -0.2 1.00e+00 1.00e+00f  1
 115 -2.0506060e+05 0.00e+00 5.97e-01  -1.7 3.27e-01   0.3 1.00e+00 1.00e+00f  1
 116 -2.0535656e+05 0.00e+00 5.84e-01  -1.7 1.13e+00  -0.2 1.00e+00 1.00e+00f  1
 117 -2.0546328e+05 0.00e+00 5.98e-01  -1.7 3.71e-01   0.2 1.00e+00 1.00e+00f  1
 118 -2.0585771e+05 0.00e+00 5.94e-01  -1.7 1.40e+00  -0.3 1.00e+00 1.00e+00f  1
 119 -2.0599851e+05 0.00e+00 5.91e-01  -1.7 4.16e-01   0.2 1.00e+00 1.00e+00f  1
iter    objective    inf_pr   inf_du lg(mu)  ||d||  lg(rg) alpha_du alpha_pr  ls
 120 -2.0657855e+05 0.00e+00 5.75e-01  -1.7 1.71e+00  -0.3 1.00e+00 1.00e+00f  1
 121 -2.0677452e+05 0.00e+00 5.75e-01  -1.7 4.57e-01   0.1 1.00e+00 1.00e+00f  1
 122 -2.0754299e+05 0.00e+00 5.72e-01  -1.7 2.03e+00  -0.4 1.00e+00 1.00e+00f  1
 123 -2.0773194e+05 0.00e+00 5.73e-01  -1.7 5.20e-01   0.1 1.00e+00 1.00e+00f  1
 124 -2.0839439e+05 0.00e+00 5.62e-01  -1.7 2.65e+00  -0.4 1.00e+00 1.00e+00f  1
 125 -2.0855936e+05 0.00e+00 5.75e-01  -1.7 5.94e-01   0.0 1.00e+00 1.00e+00f  1
 126 -2.0918370e+05 0.00e+00 5.75e-01  -1.7 3.68e+00  -0.5 1.00e+00 1.00e+00f  1
 127 -2.0931511e+05 0.00e+00 5.75e-01  -1.7 6.82e-01  -0.0 1.00e+00 1.00e+00f  1
 128 -2.1027026e+05 0.00e+00 5.47e-01  -1.7 5.83e+00  -0.5 1.00e+00 1.00e+00f  1
 129 -2.1040151e+05 0.00e+00 5.69e-01  -1.7 7.61e-01  -0.1 1.00e+00 1.00e+00f  1
iter    objective    inf_pr   inf_du lg(mu)  ||d||  lg(rg) alpha_du alpha_pr  ls
 130 -2.1139903e+05 0.00e+00 5.28e-01  -1.7 1.20e+01  -0.6 1.00e+00 1.00e+00f  1
 131 -2.1150028e+05 0.00e+00 5.74e-01  -1.7 9.08e-01  -0.1 1.00e+00 1.00e+00f  1
 132 -2.1153798e+05 0.00e+00 5.72e-01  -1.7 3.01e-01   0.3 1.00e+00 1.00e+00f  1
 133 -2.1166104e+05 0.00e+00 5.59e-01  -1.7 1.01e+00  -0.2 1.00e+00 1.00e+00f  1
 134 -2.1170400e+05 0.00e+00 5.75e-01  -1.7 3.42e-01   0.2 1.00e+00 1.00e+00f  1
 135 -2.1186008e+05 0.00e+00 5.55e-01  -1.7 1.27e+00  -0.2 1.00e+00 1.00e+00f  1
 136 -2.1192220e+05 0.00e+00 5.74e-01  -1.7 3.87e-01   0.2 1.00e+00 1.00e+00f  1
 137 -2.1221443e+05 0.00e+00 5.63e-01  -1.7 1.53e+00  -0.3 1.00e+00 1.00e+00f  1
 138 -2.1231201e+05 0.00e+00 5.50e-01  -1.7 4.20e-01   0.1 1.00e+00 1.00e+00f  1
 139 -2.1264626e+05 0.00e+00 5.74e-01  -1.7 1.78e+00  -0.3 1.00e+00 1.00e+00f  1
iter    objective    inf_pr   inf_du lg(mu)  ||d||  lg(rg) alpha_du alpha_pr  ls
 140 -2.1273991e+05 0.00e+00 5.50e-01  -1.7 4.77e-01   0.1 1.00e+00 1.00e+00f  1
 141 -2.1308414e+05 0.00e+00 5.50e-01  -1.7 2.27e+00  -0.4 1.00e+00 1.00e+00f  1
 142 -2.1319734e+05 0.00e+00 5.50e-01  -1.7 5.44e-01   0.0 1.00e+00 1.00e+00f  1
 143 -2.1362361e+05 0.00e+00 5.50e-01  -1.7 3.07e+00  -0.4 1.00e+00 1.00e+00f  1
 144 -2.1370454e+05 0.00e+00 5.50e-01  -1.7 6.21e-01  -0.0 1.00e+00 1.00e+00f  1
 145 -2.1413041e+05 0.00e+00 5.50e-01  -1.7 4.58e+00  -0.5 1.00e+00 1.00e+00f  1
 146 -2.1424273e+05 0.00e+00 5.50e-01  -1.7 7.12e-01  -0.1 1.00e+00 1.00e+00f  1
 147 -2.1523970e+05 0.00e+00 5.25e-01  -1.7 7.93e+00  -0.5 1.00e+00 1.00e+00f  1
 148 -2.1544258e+05 0.00e+00 5.25e-01  -1.7 7.83e-01  -0.1 1.00e+00 1.00e+00f  1
 149 -2.1741162e+05 0.00e+00 5.24e-01  -1.7 4.84e+01  -0.6 1.00e+00 1.00e+00f  1
iter    objective    inf_pr   inf_du lg(mu)  ||d||  lg(rg) alpha_du alpha_pr  ls
 150 -2.1752558e+05 0.00e+00 5.50e-01  -1.7 9.39e-01  -0.2 1.00e+00 1.00e+00f  1
 151 -2.1756715e+05 0.00e+00 5.49e-01  -1.7 3.13e-01   0.3 1.00e+00 1.00e+00f  1
 152 -2.1771933e+05 0.00e+00 5.25e-01  -1.7 1.07e+00  -0.2 1.00e+00 1.00e+00f  1
 153 -2.1777916e+05 0.00e+00 5.25e-01  -1.7 3.38e-01   0.2 1.00e+00 1.00e+00f  1
 154 -2.1800868e+05 0.00e+00 5.50e-01  -1.7 1.36e+00  -0.3 1.00e+00 1.00e+00f  1
 155 -2.1807324e+05 0.00e+00 5.45e-01  -1.7 3.99e-01   0.2 1.00e+00 1.00e+00f  1
 156 -2.1825902e+05 0.00e+00 5.50e-01  -1.7 1.63e+00  -0.3 1.00e+00 1.00e+00f  1
 157 -2.1831176e+05 0.00e+00 5.47e-01  -1.7 4.55e-01   0.1 1.00e+00 1.00e+00f  1
 158 -2.1845547e+05 0.00e+00 5.36e-01  -1.7 1.87e+00  -0.4 1.00e+00 1.00e+00f  1
 159 -2.1849247e+05 0.00e+00 5.47e-01  -1.7 5.18e-01   0.0 1.00e+00 1.00e+00f  1
iter    objective    inf_pr   inf_du lg(mu)  ||d||  lg(rg) alpha_du alpha_pr  ls
 160 -2.1861917e+05 0.00e+00 5.25e-01  -1.7 2.54e+00  -0.4 1.00e+00 1.00e+00f  1
 161 -2.1865662e+05 0.00e+00 5.25e-01  -1.7 5.65e-01  -0.0 1.00e+00 1.00e+00f  1
 162 -2.1893919e+05 0.00e+00 5.25e-01  -1.7 3.68e+00  -0.5 1.00e+00 1.00e+00f  1
 163 -2.1902471e+05 0.00e+00 5.25e-01  -1.7 6.48e-01  -0.1 1.00e+00 1.00e+00f  1
 164 -2.1952375e+05 0.00e+00 5.25e-01  -1.7 6.20e+00  -0.5 1.00e+00 1.00e+00f  1
 165 -2.1964066e+05 0.00e+00 5.25e-01  -1.7 7.47e-01  -0.1 1.00e+00 1.00e+00f  1
 166 -2.2041299e+05 0.00e+00 5.23e-01  -1.7 1.82e+01  -0.6 1.00e+00 1.00e+00f  1
 167 -2.2050283e+05 0.00e+00 5.24e-01  -1.7 8.49e-01  -0.2 1.00e+00 1.00e+00f  1
 168 -2.2053549e+05 0.00e+00 5.25e-01  -1.7 2.87e-01   0.3 1.00e+00 1.00e+00f  1
 169 -2.2065781e+05 0.00e+00 5.24e-01  -1.7 1.02e+00  -0.2 1.00e+00 1.00e+00f  1
iter    objective    inf_pr   inf_du lg(mu)  ||d||  lg(rg) alpha_du alpha_pr  ls
 170 -2.2070590e+05 0.00e+00 5.25e-01  -1.7 3.25e-01   0.2 1.00e+00 1.00e+00f  1
 171 -2.2088412e+05 0.00e+00 4.98e-01  -1.7 1.16e+00  -0.3 1.00e+00 1.00e+00f  1
 172 -2.2093939e+05 0.00e+00 4.98e-01  -1.7 3.49e-01   0.2 1.00e+00 1.00e+00f  1
 173 -2.2110911e+05 0.00e+00 4.98e-01  -1.7 1.37e+00  -0.3 1.00e+00 1.00e+00f  1
 174 -2.2115557e+05 0.00e+00 4.98e-01  -1.7 3.95e-01   0.1 1.00e+00 1.00e+00f  1
 175 -2.2129710e+05 0.00e+00 4.98e-01  -1.7 1.69e+00  -0.4 1.00e+00 1.00e+00f  1
 176 -2.2133635e+05 0.00e+00 4.98e-01  -1.7 4.49e-01   0.1 1.00e+00 1.00e+00f  1
 177 -2.2149068e+05 0.00e+00 4.98e-01  -1.7 2.17e+00  -0.4 1.00e+00 1.00e+00f  1
 178 -2.2152647e+05 0.00e+00 5.13e-01  -1.7 5.22e-01   0.0 1.00e+00 1.00e+00f  1
 179 -2.2163937e+05 0.00e+00 5.00e-01  -1.7 2.98e+00  -0.5 1.00e+00 1.00e+00f  1
iter    objective    inf_pr   inf_du lg(mu)  ||d||  lg(rg) alpha_du alpha_pr  ls
 180 -2.2167114e+05 0.00e+00 5.21e-01  -1.7 6.17e-01  -0.0 1.00e+00 1.00e+00f  1
 181 -2.2193452e+05 0.00e+00 5.25e-01  -1.7 4.88e+00  -0.5 1.00e+00 1.00e+00f  1
 182 -2.2197122e+05 0.00e+00 4.97e-01  -1.7 6.73e-01  -0.1 1.00e+00 1.00e+00f  1
 183 -2.2215431e+05 0.00e+00 4.98e-01  -1.7 1.02e+01  -0.6 1.00e+00 1.00e+00f  1
 184 -2.2218569e+05 0.00e+00 4.98e-01  -1.7 7.78e-01  -0.1 1.00e+00 1.00e+00f  1
 185 -2.2219731e+05 0.00e+00 4.98e-01  -1.7 2.62e-01   0.3 1.00e+00 1.00e+00f  1
 186 -2.2223701e+05 0.00e+00 4.98e-01  -1.7 9.07e-01  -0.2 1.00e+00 1.00e+00f  1
 187 -2.2225133e+05 0.00e+00 4.98e-01  -1.7 2.96e-01   0.2 1.00e+00 1.00e+00f  1
 188 -2.2230410e+05 0.00e+00 4.98e-01  -1.7 1.07e+00  -0.2 1.00e+00 1.00e+00f  1
 189 -2.2232337e+05 0.00e+00 4.98e-01  -1.7 3.35e-01   0.2 1.00e+00 1.00e+00f  1
iter    objective    inf_pr   inf_du lg(mu)  ||d||  lg(rg) alpha_du alpha_pr  ls
 190 -2.2239603e+05 0.00e+00 4.98e-01  -1.7 1.28e+00  -0.3 1.00e+00 1.00e+00f  1
 191 -2.2241968e+05 0.00e+00 4.98e-01  -1.7 3.79e-01   0.1 1.00e+00 1.00e+00f  1
 192 -2.2251431e+05 0.00e+00 4.98e-01  -1.7 1.57e+00  -0.3 1.00e+00 1.00e+00f  1
 193 -2.2254446e+05 0.00e+00 4.98e-01  -1.7 4.31e-01   0.1 1.00e+00 1.00e+00f  1
 194 -2.2268441e+05 0.00e+00 4.98e-01  -1.7 1.99e+00  -0.4 1.00e+00 1.00e+00f  1
 195 -2.2272762e+05 0.00e+00 4.98e-01  -1.7 4.90e-01   0.0 1.00e+00 1.00e+00f  1
 196 -2.2298750e+05 0.00e+00 4.98e-01  -1.7 2.66e+00  -0.4 1.00e+00 1.00e+00f  1
 197 -2.2306252e+05 0.00e+00 4.97e-01  -1.7 5.60e-01  -0.0 1.00e+00 1.00e+00f  1
 198 -2.2319943e+05 0.00e+00 4.96e-01  -1.7 3.71e+00  -0.5 1.00e+00 1.00e+00f  1
 199 -2.2322322e+05 0.00e+00 4.98e-01  -1.7 6.41e-01  -0.1 1.00e+00 1.00e+00f  1
iter    objective    inf_pr   inf_du lg(mu)  ||d||  lg(rg) alpha_du alpha_pr  ls
 200 -2.2336573e+05 0.00e+00 4.95e-01  -1.7 7.34e+00  -0.5 1.00e+00 1.00e+00f  1
 201 -2.2341383e+05 0.00e+00 4.98e-01  -1.7 7.41e-01  -0.1 1.00e+00 1.00e+00f  1
 202 -2.2397608e+05 0.00e+00 4.98e-01  -1.7 4.64e+01  -0.6 1.00e+00 1.00e+00f  1
 203 -2.2400923e+05 0.00e+00 4.98e-01  -1.7 8.60e-01  -0.2 1.00e+00 1.00e+00f  1
 204 -2.2402113e+05 0.00e+00 4.98e-01  -1.7 2.84e-01   0.3 1.00e+00 1.00e+00f  1
 205 -2.2406205e+05 0.00e+00 4.96e-01  -1.7 1.01e+00  -0.2 1.00e+00 1.00e+00f  1
 206 -2.2407697e+05 0.00e+00 4.98e-01  -1.7 3.21e-01   0.2 1.00e+00 1.00e+00f  1
 207 -2.2413385e+05 0.00e+00 4.98e-01  -1.7 1.20e+00  -0.3 1.00e+00 1.00e+00f  1
 208 -2.2415485e+05 0.00e+00 4.98e-01  -1.7 3.64e-01   0.1 1.00e+00 1.00e+00f  1
 209 -2.2424942e+05 0.00e+00 4.98e-01  -1.7 1.46e+00  -0.3 1.00e+00 1.00e+00f  1
iter    objective    inf_pr   inf_du lg(mu)  ||d||  lg(rg) alpha_du alpha_pr  ls
 210 -2.2428607e+05 0.00e+00 4.98e-01  -1.7 4.13e-01   0.1 1.00e+00 1.00e+00f  1
 211 -2.2447992e+05 0.00e+00 4.97e-01  -1.7 1.83e+00  -0.4 1.00e+00 1.00e+00f  1
 212 -2.2452302e+05 0.00e+00 4.98e-01  -1.7 4.69e-01   0.0 1.00e+00 1.00e+00f  1
 213 -2.2465466e+05 0.00e+00 4.98e-01  -1.7 2.40e+00  -0.4 1.00e+00 1.00e+00f  1
 214 -2.2468121e+05 0.00e+00 4.85e-01  -1.7 5.23e-01  -0.0 1.00e+00 1.00e+00f  1
 215 -2.2473139e+05 0.00e+00 4.83e-01  -1.7 3.37e+00  -0.5 1.00e+00 1.00e+00f  1
 216 -2.2473968e+05 0.00e+00 4.95e-01  -1.7 6.07e-01  -0.1 1.00e+00 1.00e+00f  1
 217 -2.2477574e+05 0.00e+00 4.98e-01  -1.7 5.73e+00  -0.5 1.00e+00 1.00e+00f  1
 218 -2.2478709e+05 0.00e+00 4.90e-01  -1.7 7.00e-01  -0.1 1.00e+00 1.00e+00f  1
 219 -2.2482694e+05 0.00e+00 3.74e-01  -1.7 1.25e+01  -0.6 1.00e+00 1.00e+00f  1
iter    objective    inf_pr   inf_du lg(mu)  ||d||  lg(rg) alpha_du alpha_pr  ls
 220 -2.2482874e+05 0.00e+00 4.41e-01  -1.7 7.11e-01  -0.2 1.00e+00 1.00e+00f  1
 221 -2.2484441e+05 0.00e+00 4.67e-01  -1.7 3.03e+01  -0.6 1.00e+00 1.00e+00f  1
 222 -2.2484652e+05 0.00e+00 4.42e-01  -1.7 7.55e-01  -0.2 1.00e+00 1.00e+00f  1
 223 -2.2484733e+05 0.00e+00 4.80e-01  -1.7 2.96e-01   0.2 1.00e+00 1.00e+00f  1
 224 -2.2485058e+05 0.00e+00 4.57e-01  -1.7 1.05e+00  -0.3 1.00e+00 1.00e+00f  1
 225 -2.2485198e+05 0.00e+00 4.91e-01  -1.7 3.43e-01   0.2 1.00e+00 1.00e+00f  1
 226 -2.2486063e+05 0.00e+00 4.65e-01  -1.7 1.36e+00  -0.3 1.00e+00 1.00e+00f  1
 227 -2.2486581e+05 0.00e+00 4.14e-01  -1.7 3.25e-01   0.1 1.00e+00 1.00e+00f  1
 228 -2.2490882e+05 0.00e+00 4.66e-01  -1.7 1.69e+00  -0.4 1.00e+00 1.00e+00f  1
 229 -2.2493594e+05 0.00e+00 1.14e-01  -1.7 1.74e+00  -0.8 1.00e+00 1.00e+00f  1
iter    objective    inf_pr   inf_du lg(mu)  ||d||  lg(rg) alpha_du alpha_pr  ls
 230 -2.2493600e+05 0.00e+00 4.95e-01  -2.5 6.43e+00  -1.3 1.00e+00 5.00e-01f  2
 231 -2.2493971e+05 0.00e+00 2.99e-01  -2.5 1.35e+01    -  1.00e+00 1.00e+00f  1
 232 -2.2493992e+05 0.00e+00 6.83e-03  -2.5 1.31e+00    -  1.00e+00 1.00e+00f  1
 233 -2.2493992e+05 0.00e+00 1.48e-04  -3.8 4.00e-02    -  1.00e+00 1.00e+00f  1
 234 -2.2493992e+05 0.00e+00 6.23e-08  -5.7 8.31e-04    -  1.00e+00 1.00e+00f  1
 235 -2.2493992e+05 0.00e+00 1.05e-14  -8.6 3.50e-07    -  1.00e+00 1.00e+00f  1

Number of Iterations....: 235

                                   (scaled)                 (unscaled)
Objective...............:  -2.2493991783295525e+05   -2.2493991783295525e+05
Dual infeasibility......:   1.0547118733938987e-14    1.0547118733938987e-14
Constraint violation....:   0.0000000000000000e+00    0.0000000000000000e+00
Complementarity.........:   0.0000000000000000e+00    0.0000000000000000e+00
Overall NLP error.......:   1.0547118733938987e-14    1.0547118733938987e-14


Number of objective function evaluations             = 241
Number of objective gradient evaluations             = 236
Number of equality constraint evaluations            = 0
Number of inequality constraint evaluations          = 0
Number of equality constraint Jacobian evaluations   = 0
Number of inequality constraint Jacobian evaluations = 0
Number of Lagrangian Hessian evaluations             = 235
Total CPU secs in IPOPT (w/o function evaluations)   =      0.690
Total CPU secs in NLP function evaluations           =      0.923

EXIT: Optimal Solution Found.

 ** SUBROUTINE CUTEST_csetup: Warning. The problem has no general constraints. 
 ** Other tools may be preferable ** 

************************ CUTEst statistics ************************


 Package used            :  IPOPT
 Problem                 :  FLETBV3M  
 # variables             =            5000
 # constraints           =               0
 # objective functions   =        0.4780000E+03
 # objective gradients   =        0.2370000E+03
 # objective Hessians    =        0.2360000E+03
 # Hessian-vector prdct  =        0.0000000E+00
 # constraints functions =        0.0000000E+00
 # constraints gradients =        0.0000000E+00
 # constraints Hessians  =        0.0000000E+00
 Exit code               =               0
 Final f                 =  -0.2249399E+06
 Set up time             =            0.15 seconds
 Solve time              =            1.75 seconds


******************************************************************

System Time =       1.6180000305 s.
